; benchmark generated from python API
(set-info :status unknown)
(declare-fun s () Int)
(define-funs-rec ( ( T2_03 ((x!1 Int)) Int)
                   ( t2_03 ((x!1 Int)) String)
                   ( invert2_03 ((x!1 String)) String)
                   ( ilog2_2_03 ((x!1 Int)) Int)
                   ( T2_02 ((x!1 Int)) Int)
                   ( p2_02 ((x!1 Int)) Int))
                 ( (let ((a!1 (str.substr ((_ t2_03 0)
                                            (+ ((_ ilog2_2_03 0) x!1) 1))
                                          x!1
                                          1)))
                     (ite (= a!1 "0") 0 1))
                   (let ((a!1 (str.++ ((_ t2_03 0) (- x!1 1))
                                      ((_ invert2_03 0) ((_ t2_03 0) (- x!1 1))))))
                     (ite (= x!1 0) "0" a!1))
                   (let ((a!1 ((_ invert2_03 0)
                                (str.substr x!1 1 (- (str.len x!1) 1)))))
                   (let ((a!2 (ite (= x!1 "0")
                                   "1"
                                   (str.++ ((_ invert2_03 0)
                                             (str.substr x!1 0 1))
                                           a!1))))
                     (ite (= x!1 "") "" (ite (= x!1 "1") "0" a!2))))
                   (ite (<= x!1 1) 0 (+ 1 ((_ ilog2_2_03 0) (div x!1 2))))
                   (let ((a!1 (/ (- 1.0 (^ (- 1) ((_ p2_02 0) x!1))) 2.0)))
                     (to_int a!1))
                   (ite (= x!1 0) 0 (+ ((_ p2_02 0) (div x!1 2)) (mod x!1 2)))))
(assert
 (forall ((n Int) )(let ((?x5490 ((_ T2_03 0) n)))
 (let (($x2853 (= ?x5490 n)))
 (let ((?x551 ((_ T2_02 0) n)))
 (let (($x4750 (= ?x551 n)))
 (let (($x2844 (and $x4750 $x2853)))
 (let (($x387 (< n s)))
 (let (($x4395 (>= n 0)))
 (let (($x5518 (and $x4395 $x387)))
 (=> $x5518 $x2844))))))))))
 )
(assert
 (let ((?x5370 ((_ T2_02 0) s)))
 (= ?x5370 1)))
(assert
 (let ((?x5310 ((_ T2_03 0) s)))
 (= ?x5310 1)))
(assert
 (forall ((n Int) )(let ((?x5490 ((_ T2_03 0) n)))
(let ((?x551 ((_ T2_02 0) n)))
(let (($x2185 (= ?x551 ?x5490)))
(let (($x4395 (>= n 0)))
(=> $x4395 $x2185))))))
)
(check-sat)
